
******************************************************************************
This program contains Ipopt, a library for large-scale nonlinear optimization.
 Ipopt is released as open source code under the Eclipse Public License (EPL).
         For more information visit http://projects.coin-or.org/Ipopt

This version of Ipopt was compiled from source code available at
    https://github.com/IDAES/Ipopt as part of the Institute for the Design of
    Advanced Energy Systems Process Systems Engineering Framework (IDAES PSE
    Framework) Copyright (c) 2018-2019. See https://github.com/IDAES/idaes-pse.

This version of Ipopt was compiled using HSL, a collection of Fortran codes
    for large-scale scientific computation.  All technical papers, sales and
    publicity material resulting from use of the HSL codes within IPOPT must
    contain the following acknowledgement:
        HSL, a collection of Fortran codes for large-scale scientific
        computation. See http://www.hsl.rl.ac.uk.
******************************************************************************

This is Ipopt version 3.13.2, running with linear solver ma27.

Number of nonzeros in equality constraint Jacobian...:     1126
Number of nonzeros in inequality constraint Jacobian.:        0
Number of nonzeros in Lagrangian Hessian.............:     1431

Total number of variables............................:      432
                     variables with only lower bounds:      108
                variables with lower and upper bounds:      270
                     variables with only upper bounds:        0
Total number of equality constraints.................:      428
Total number of inequality constraints...............:        0
        inequality constraints with only lower bounds:        0
   inequality constraints with lower and upper bounds:        0
        inequality constraints with only upper bounds:        0

iter    objective    inf_pr   inf_du lg(mu)  ||d||  lg(rg) alpha_du alpha_pr  ls
   0  0.0000000e+00 1.15e+00 7.11e-15  -1.0 0.00e+00    -  0.00e+00 0.00e+00   0
   1  2.2222024e+01 2.02e+00 3.78e+06  -1.0 1.14e+06    -  8.00e-02 3.40e-01h  2
   2  2.9909950e+01 1.76e+00 3.19e+06  -1.0 1.35e+06    -  2.62e-01 1.29e-01h  1
   3  2.9915511e+01 1.76e+00 3.19e+06  -1.0 3.99e+06    -  1.70e-01 8.85e-04h  1
   4  6.2571690e+01 1.57e+00 2.87e+06  -1.0 4.02e+06    -  2.02e-02 1.10e-01h  2
   5  6.7593198e+01 1.54e+00 2.81e+06  -1.0 1.36e+06    -  1.51e-01 1.90e-02h  2
   6  6.8885441e+01 1.53e+00 2.80e+06  -1.0 1.33e+06    -  4.79e-01 4.90e-03h  7
   7  7.2968275e+01 1.54e+00 2.75e+06  -1.0 2.15e+06    -  2.99e-01 1.94e-02h  4
   8  1.9476577e+02 9.91e-01 2.79e+06  -1.0 2.42e+06    -  3.69e-01 3.59e-01h  1
   9  1.9521044e+02 9.84e-01 2.77e+06  -1.0 2.78e+05  -4.0 5.28e-01 7.26e-03h  4
iter    objective    inf_pr   inf_du lg(mu)  ||d||  lg(rg) alpha_du alpha_pr  ls
  10  1.9975481e+02 9.98e-01 2.88e+06  -1.0 9.88e+05  -4.5 5.91e-01 2.17e-02h  5
  11  2.1506301e+02 1.21e+00 2.88e+06  -1.0 7.65e+05  -5.0 7.14e-01 8.14e-02h  3
  12  2.1354678e+02 1.21e+00 2.90e+06  -1.0 6.38e+07  -5.4 4.56e-03 1.94e-04f  5
  13  2.1585030e+02 1.15e+00 2.72e+06  -1.0 3.41e+05  -5.0 6.06e-01 5.13e-02h  3
  14  1.9491219e+02 1.15e+00 4.97e+06  -1.0 4.14e+06    -  5.08e-01 7.41e-02f  1
  15  1.9603087e+02 1.15e+00 4.95e+06  -1.0 1.21e+06  -5.5 7.15e-01 4.23e-03h  1
  16  1.9984549e+02 1.21e+00 4.90e+06  -1.0 1.30e+06  -6.0 7.12e-01 1.05e-02h  6
  17  2.0150244e+02 1.20e+00 4.88e+06  -1.0 1.16e+06  -5.5 3.97e-01 4.42e-03h  7
  18  2.0236769e+02 1.20e+00 4.87e+06  -1.0 1.05e+06  -5.1 8.82e-01 2.40e-03h  8
  19  3.7414912e+02 8.39e-01 1.45e+07  -1.0 3.71e+06    -  3.25e-01 3.03e-01H  1
iter    objective    inf_pr   inf_du lg(mu)  ||d||  lg(rg) alpha_du alpha_pr  ls
  20  3.7307741e+02 1.05e+00 3.02e+07  -1.0 2.13e+06  -3.8 2.21e-03 1.49e-02f  5
  21  3.7312577e+02 1.05e+00 3.02e+07  -1.0 1.58e+06  -4.3 6.11e-01 1.10e-04h  1
  22  3.8344751e+02 1.02e+00 2.99e+07  -1.0 1.24e+06  -4.7 9.90e-01 2.63e-02h  5
  23  3.8822055e+02 1.03e+00 3.00e+07  -1.0 1.07e+06  -4.3 5.46e-01 1.33e-02h  6
  24  7.3684391e+02 9.08e-01 6.08e+07  -1.0 5.38e+06    -  4.32e-01 2.47e-01h  3
  25  1.2602830e+03 7.96e-01 4.51e+07  -1.0 1.12e+07    -  3.45e-01 1.24e-01h  4
  26  1.2756536e+03 7.68e-01 3.89e+07  -1.0 1.21e+06  -4.8 9.67e-01 3.50e-02h  1
  27  1.2718400e+03 7.45e-01 3.73e+07  -1.0 1.48e+06  -5.3 1.00e+00 3.04e-02f  5
  28  1.2697060e+03 7.52e-01 3.67e+07  -1.0 1.40e+06  -4.8 6.64e-01 1.59e-02f  6
  29  1.2319524e+03 9.68e-01 5.24e+07  -1.0 1.20e+07  -4.4 4.43e-03 7.28e-03f  6
iter    objective    inf_pr   inf_du lg(mu)  ||d||  lg(rg) alpha_du alpha_pr  ls
  30  1.2124372e+03 9.40e-01 4.23e+07  -1.0 1.72e+06  -4.9 1.63e-03 2.92e-02f  5
  31  1.2124106e+03 9.40e-01 4.23e+07  -1.0 1.41e+06  -5.4 1.90e-01 7.12e-05h  1
  32  1.2127972e+03 9.38e-01 4.22e+07  -1.0 9.60e+05  -4.9 1.00e+00 1.72e-03h  1
  33  1.6763704e+03 8.80e-01 9.54e+07  -1.0 1.63e+07    -  9.82e-02 6.19e-02h  5
  34  1.5127627e+03 9.67e-01 7.94e+07  -1.0 3.84e+07  -5.4 2.57e-04 8.70e-03f  5
  35  1.4973609e+03 9.72e-01 7.88e+07  -1.0 7.64e+06  -5.0 3.89e-06 4.20e-03f  7
  36  1.4973574e+03 9.72e-01 7.88e+07  -1.0 4.19e+05  -1.9 5.91e-01 3.12e-04h  4
  37  1.4973598e+03 9.74e-01 7.86e+07  -1.0 2.07e+05  -2.3 9.91e-01 2.11e-03h  1
  38  1.4971364e+03 9.78e-01 7.86e+07  -1.0 1.57e+06  -2.8 1.32e-04 4.85e-04f 11
  39  1.4977874e+03 1.00e+00 7.79e+07  -1.0 2.32e+06  -2.4 6.74e-05 2.13e-03f  8
iter    objective    inf_pr   inf_du lg(mu)  ||d||  lg(rg) alpha_du alpha_pr  ls
  40  1.4977967e+03 1.00e+00 7.79e+07  -1.0 5.12e+05  -2.0 1.00e+00 3.04e-04h  5
  41  1.4977974e+03 1.00e+00 9.24e+07  -1.0 2.63e+05  -1.5 1.00e+00 9.95e-05h  6
  42  1.4981639e+03 1.02e+00 1.29e+08  -1.0 1.67e+06  -2.0 4.41e-03 3.09e-03f  8
  43  1.5014467e+03 1.27e+00 5.73e+08  -1.0 1.47e+06  -2.5 1.07e-02 2.81e-02f  5
  44  1.5021263e+03 1.24e+00 5.59e+08  -1.0 3.98e+05  -3.0 1.00e+00 2.44e-02h  1
  45  1.5021308e+03 1.24e+00 5.59e+08  -1.0 2.60e+05  -1.6 1.00e+00 2.08e-04h  1
  46  7.7693208e+02 4.48e+01 4.86e+12  -1.0 1.05e+06  -2.1 1.44e-03 6.28e-01F  1
  47  7.7685541e+02 4.47e+01 4.85e+12  -1.0 4.03e+05  -0.8 3.15e-02 1.01e-03h  1
  48r 7.7685541e+02 4.47e+01 1.00e+03   1.7 0.00e+00  -0.4 0.00e+00 4.53e-07R  4
  49r 7.7685578e+02 1.18e+01 1.01e+03   1.7 1.16e+04    -  5.82e-03 3.82e-03f  1
iter    objective    inf_pr   inf_du lg(mu)  ||d||  lg(rg) alpha_du alpha_pr  ls
  50  7.7686050e+02 1.18e+01 7.30e+02  -1.0 4.96e+05    -  1.80e-01 2.83e-04h  1
  51  7.8456244e+02 1.17e+01 2.38e+04  -1.0 2.63e+06    -  1.76e-01 8.83e-03h  1
  52  1.1560957e+03 7.43e+00 7.55e+06  -1.0 2.72e+06    -  1.81e-01 3.64e-01h  1
  53  1.3814398e+03 6.07e+00 7.74e+06  -1.0 2.97e+06    -  6.23e-01 1.82e-01h  3
  54  1.4558954e+03 5.70e+00 7.25e+06  -1.0 2.72e+06    -  4.67e-01 6.19e-02h  5
  55  1.4655280e+03 5.65e+00 7.19e+06  -1.0 2.77e+06    -  6.69e-01 7.73e-03h  8
  56  1.4704577e+03 5.63e+00 7.16e+06  -1.0 2.84e+06    -  4.35e-01 3.87e-03h  9
  57  1.4729734e+03 5.62e+00 7.15e+06  -1.0 2.90e+06    -  6.67e-01 1.93e-03h 10
  58  3.1396209e+03 5.98e+00 5.86e+06  -1.0 3.00e+06    -  4.73e-01 9.90e-01h  1
  59  3.2948587e+03 5.24e+00 5.23e+06  -1.0 1.79e+06    -  4.31e-01 1.24e-01h  4
iter    objective    inf_pr   inf_du lg(mu)  ||d||  lg(rg) alpha_du alpha_pr  ls
  60  3.5282747e+03 4.59e+00 4.61e+06  -1.0 2.72e+06    -  5.04e-01 1.24e-01h  4
  61  3.5582551e+03 4.52e+00 4.49e+06  -1.0 1.30e+06    -  4.38e-01 3.09e-02h  6
  62  7.7245048e+03 1.19e+01 2.59e+07  -1.0 5.02e+06    -  8.64e-01 9.46e-01h  1
  63  7.6395656e+03 1.04e+01 2.25e+07  -1.0 8.42e+05    -  2.68e-01 1.24e-01f  4
  64  7.5646946e+03 9.12e+00 1.94e+07  -1.0 7.71e+05    -  3.62e-01 1.24e-01f  4
  65  7.4435874e+03 6.87e+00 1.42e+07  -1.0 7.31e+05    -  4.48e-01 2.47e-01f  3
  66  7.1842588e+03 6.23e+00 1.02e+07  -1.0 2.06e+06    -  5.69e-01 9.27e-02F  1
  67  7.1835195e+03 6.13e+00 8.84e+06  -1.0 6.07e+05    -  5.80e-01 1.55e-02f  7
  68  7.0870776e+03 2.34e+01 5.36e+06  -1.0 5.98e+05    -  1.07e-02 9.90e-01f  1
  69  7.0518841e+03 1.62e+01 5.66e+05  -1.0 5.90e+05    -  9.90e-01 9.90e-01f  1
iter    objective    inf_pr   inf_du lg(mu)  ||d||  lg(rg) alpha_du alpha_pr  ls
  70  6.6650652e+03 1.64e+01 9.55e+09  -1.0 5.51e+05    -  5.50e-01 9.90e-01f  1
  71  6.6650650e+03 1.64e+01 8.76e+09  -1.0 5.89e+05  -0.8 3.79e-04 1.28e-05h  1
  72  6.6650453e+03 1.63e+01 2.15e+12  -1.0 5.91e+05  -1.3 9.96e-01 9.09e-04h  1
  73  6.6649780e+03 1.63e+01 4.31e+12  -1.0 5.91e+05  -1.8 1.00e+00 3.11e-03h  1
  74  6.6646146e+03 1.58e+01 6.31e+12  -1.0 5.85e+05  -2.3 1.00e+00 2.72e-02h  1
  75  6.6650822e+03 8.76e+00 4.32e+12  -1.0 5.75e+05  -2.7 1.00e+00 4.95e-01h  2
  76  6.6437352e+03 9.65e+00 1.30e+12  -1.0 2.64e+05  -3.2 6.88e-01 9.90e-01f  1
  77  6.6708893e+03 7.27e+00 3.33e+14  -1.0 4.98e+05  -3.7 1.00e+00 2.47e-01h  3
  78  2.7351888e+03 6.91e+00 2.99e+14  -1.0 9.84e+07    -  2.07e-02 4.92e-02f  1
In iteration 78, 27 Slacks too small, adjusting variable bounds
  79  2.7265719e+03 1.36e+00 6.08e+14  -1.0 4.97e+05  -3.3 3.46e-03 9.90e-01f  1
iter    objective    inf_pr   inf_du lg(mu)  ||d||  lg(rg) alpha_du alpha_pr  ls
  80r 2.7265719e+03 1.36e+00 1.00e+03   0.1 0.00e+00  -3.7 0.00e+00 4.33e-07R  4
  81r 2.7265735e+03 5.72e+00 9.96e+02   0.1 8.58e+03    -  1.04e-02 2.80e-03f  1
  82r 2.7265765e+03 5.68e+00 2.02e+03   0.1 2.35e+03    -  2.58e-02 5.17e-03f  1
  83r 2.7265897e+03 5.48e+00 1.83e+03   0.1 2.15e+03    -  3.87e-02 3.14e-02f  1
  84r 2.7265929e+03 5.26e+00 1.66e+03   0.1 1.48e+03    -  4.68e-02 3.90e-02f  1
  85r 2.7265942e+03 5.15e+00 1.66e+03   0.1 9.44e+02    -  5.63e-04 1.98e-02f  1
  86r 2.7265942e+03 5.14e+00 1.55e+03   0.1 6.67e+02    -  6.13e-02 1.57e-03f  1
  87r 2.7265958e+03 4.96e+00 1.50e+03   0.1 3.59e+02    -  1.82e-02 3.43e-02f  1
  88r 2.7265981e+03 4.75e+00 1.52e+03   0.1 1.82e+02    -  2.40e-01 4.25e-02f  1
  89r 2.7265966e+03 3.30e+00 1.29e+03   0.1 1.98e+02    -  6.87e-01 3.05e-01f  1
iter    objective    inf_pr   inf_du lg(mu)  ||d||  lg(rg) alpha_du alpha_pr  ls
  90r 2.7265997e+03 2.06e+00 7.52e+02   0.1 7.55e+01    -  4.39e-01 3.74e-01f  1
  91r 2.7266074e+03 8.75e-01 3.49e+02   0.1 3.37e+01    -  4.07e-01 1.00e+00f  1
  92  2.7264361e+03 8.69e-01 8.80e+03  -1.0 1.72e+06    -  5.14e-04 6.96e-03h  1
  93  2.7264356e+03 8.69e-01 8.80e+03  -1.0 1.72e+06    -  7.25e-03 6.68e-05h  1
  94  2.7264716e+03 8.69e-01 1.31e+05  -1.0 1.77e+06    -  4.00e-01 4.53e-04h  1
  95  2.7266745e+03 8.68e-01 3.03e+05  -1.0 6.08e+06    -  1.24e-01 1.14e-03h  1
  96  2.7268875e+03 8.68e-01 2.85e+06  -1.0 8.58e+06    -  1.84e-01 4.10e-05h  1
  97  1.0326902e+03 2.52e+00 1.26e+08  -1.0 4.30e+07    -  2.22e-02 3.46e-02H  1
  98  1.0327418e+03 2.51e+00 1.25e+08  -1.0 1.95e+06  -4.2 1.84e-02 5.33e-04h  1
  99  1.0372058e+03 2.34e+00 1.22e+08  -1.0 1.94e+06  -4.7 1.90e-01 2.67e-02h  1
iter    objective    inf_pr   inf_du lg(mu)  ||d||  lg(rg) alpha_du alpha_pr  ls
 100  1.0381792e+03 2.32e+00 1.21e+08  -1.0 1.74e+06  -5.2 2.05e-02 7.46e-03h  5
 101  1.0206547e+03 2.19e+00 1.33e+08  -1.0 1.80e+06  -4.8 8.78e-03 1.01e-02H  1
 102  1.0206835e+03 2.19e+00 1.33e+08  -1.0 7.04e+06  -5.2 1.24e-01 7.33e-06h  2
 103  1.0209484e+03 2.19e+00 1.33e+08  -1.0 7.52e+06  -5.7 3.69e-01 1.05e-04h  2
 104  5.4225014e+02 6.43e+01 1.71e+10  -1.0 2.99e+07  -6.2 3.05e-02 8.02e-03H  1
 105  5.4227295e+02 6.43e+01 1.71e+10  -1.0 4.82e+06  -1.2 9.73e-02 4.69e-04h  1
 106  5.4246684e+02 6.42e+01 1.71e+10  -1.0 4.83e+06  -1.7 9.76e-02 6.70e-04h  7
 107  5.4971467e+02 6.40e+01 1.97e+10  -1.0 8.08e+06  -2.2 1.08e-01 3.58e-03h  3
 108  5.5305757e+02 6.39e+01 2.21e+10  -1.0 7.00e+06  -1.8 1.27e-02 1.09e-03h  3
 109  5.5331809e+02 2.89e+01 1.66e+12  -1.0 4.93e+06  -1.3 7.15e-02 5.53e-02f  4
iter    objective    inf_pr   inf_du lg(mu)  ||d||  lg(rg) alpha_du alpha_pr  ls
 110  5.6039408e+02 2.87e+01 1.65e+12  -1.0 5.89e+06    -  6.20e-02 7.06e-03h  3
 111  6.3258659e+02 2.62e+01 1.53e+12  -1.0 3.03e+06    -  1.27e-01 1.27e-01S 22
 112  6.3388685e+02 2.61e+01 1.52e+12  -1.0 4.01e+06  -0.9 2.26e-02 1.85e-03h  4
 113  6.3388410e+02 2.61e+01 1.52e+12  -1.0 3.68e+06  -0.5 1.98e-02 4.10e-06h  6
 114  6.2738404e+02 2.27e+01 1.39e+12  -1.0 1.01e+05  -0.1 2.20e-01 2.48e-01f  3
 115  6.2745813e+02 2.27e+01 1.39e+12  -1.0 4.04e+06  -0.5 3.40e-01 5.31e-05h  1
 116  2.3166995e+02 1.85e+02 1.38e+13  -1.0 3.90e+06  -1.0 3.13e-02 5.86e-01H  1
 117  1.9792027e+02 1.85e+02 1.38e+13  -1.0 2.92e+09  -0.6 1.12e-05 5.98e-05f  1
In iteration 117, 1 Slack too small, adjusting variable bound
 118  1.9269383e+02 1.85e+02 1.38e+13  -1.0 2.33e+09  -0.2 3.01e-08 1.83e-05f  1
 119  1.5280451e+02 1.85e+02 1.37e+13  -1.0 6.22e+08  -0.6 5.34e-09 3.56e-04f  1
iter    objective    inf_pr   inf_du lg(mu)  ||d||  lg(rg) alpha_du alpha_pr  ls
 120  1.3931584e+02 1.85e+02 1.36e+13  -1.0 2.68e+08  -0.2 2.70e-04 2.88e-03f  1
MA27BD returned iflag=-4 and requires more memory.
 Increase liw from 18555 to 37110 and la from 21385 to 44504 and factorize again.
 121  1.4106370e+02 1.85e+02 1.36e+13  -1.0 2.29e+09  -0.7 7.70e-04 2.19e-05h  3
 122  1.4152374e+02 1.85e+02 1.36e+13  -1.0 2.58e+08  -1.2 3.08e-03 2.37e-05h  2
 123  1.4201858e+02 1.85e+02 1.36e+13  -1.0 2.73e+08  -1.6 3.02e-03 2.43e-05h  1
 124r 1.4201858e+02 1.85e+02 1.00e+03   2.3 0.00e+00  -2.1 0.00e+00 1.17e-07R  2
 125r 1.4201849e+02 1.62e+02 1.00e+03   2.3 1.81e+04    -  5.84e-04 2.41e-03f  2
 126  1.6318069e+02 1.62e+02 7.93e+09  -1.0 1.82e+08    -  1.90e-06 8.85e-04h  1
 127  1.6318069e+02 1.62e+02 5.36e+17  -1.0 5.17e+00   9.7 9.51e-03 4.99e-03h  1
WARNING: Problem in step computation; switching to emergency mode.
 128r 1.6318069e+02 1.62e+02 9.99e+02   2.2 0.00e+00  19.1 0.00e+00 0.00e+00R  1
 129r 1.6318060e+02 1.47e+02 1.79e+10   2.2 1.30e+04    -  3.06e-05 6.11e-03f  1
iter    objective    inf_pr   inf_du lg(mu)  ||d||  lg(rg) alpha_du alpha_pr  ls
 130r 1.6318060e+02 1.44e+02 1.65e+14   2.2 3.99e+00   4.4 3.87e-02 2.19e-02h  1
 131  1.6335268e+02 1.09e+02 1.69e+07  -1.0 2.17e+08    -  2.05e-04 2.38e-03h  1
 132  1.6335861e+02 1.09e+02 5.62e+12  -1.0 1.12e+05  -1.6 2.34e-03 2.47e-03h  1
 133r 1.6335861e+02 1.09e+02 9.99e+02   2.0 0.00e+00  -2.1 0.00e+00 4.81e-09R  2
 134r 1.6335795e+02 7.70e+01 1.90e+03   2.0 9.59e+03    -  1.66e-03 6.42e-03f  1
 135r 1.6335795e+02 7.70e+01 9.99e+02   1.9 0.00e+00    -  0.00e+00 3.09e-09R  2
 136r 1.6335789e+02 2.87e+01 1.56e+11   1.9 9.97e+03    -  2.95e-02 4.84e-03f  1
 137  1.5669551e+02 2.87e+01 8.22e+05  -1.0 6.21e+07    -  6.61e-04 2.77e-03f  1
 138  1.5669551e+02 2.87e+01 8.22e+05  -1.0 2.78e+11  -2.5 1.51e-10 3.82e-10f  2
 139  1.5669551e+02 2.87e+01 8.22e+05  -1.0 5.45e+10  -3.0 7.88e-12 2.23e-12H  1
iter    objective    inf_pr   inf_du lg(mu)  ||d||  lg(rg) alpha_du alpha_pr  ls
 140  1.5669544e+02 2.87e+01 8.22e+05  -1.0 1.73e+11  -3.5 6.18e-12 3.06e-10f  2
 141  1.5669547e+02 2.87e+01 8.22e+05  -1.0 2.52e+11  -4.0 2.12e-10 4.53e-11f  4
 142  1.5669551e+02 2.87e+01 2.92e+23  -1.0 2.67e+11  -4.4 2.43e-10 2.06e-11f  5
Scaling factors are invalid - setting them all to 1.
Scaling factors are invalid - setting them all to 1.
Scaling factors are invalid - setting them all to 1.
Scaling factors are invalid - setting them all to 1.
Scaling factors are invalid - setting them all to 1.
Scaling factors are invalid - setting them all to 1.
Scaling factors are invalid - setting them all to 1.
Scaling factors are invalid - setting them all to 1.
Scaling factors are invalid - setting them all to 1.
Scaling factors are invalid - setting them all to 1.
Scaling factors are invalid - setting them all to 1.
Scaling factors are invalid - setting them all to 1.
Scaling factors are invalid - setting them all to 1.
Scaling factors are invalid - setting them all to 1.
Scaling factors are invalid - setting them all to 1.
Scaling factors are invalid - setting them all to 1.
Scaling factors are invalid - setting them all to 1.
Scaling factors are invalid - setting them all to 1.
Scaling factors are invalid - setting them all to 1.
Scaling factors are invalid - setting them all to 1.
Scaling factors are invalid - setting them all to 1.
Scaling factors are invalid - setting them all to 1.
Scaling factors are invalid - setting them all to 1.
Scaling factors are invalid - setting them all to 1.
WARNING: Problem in step computation; switching to emergency mode.
 143r 1.5669551e+02 2.87e+01 9.99e+02   1.5 0.00e+00  19.3 0.00e+00 0.00e+00R  1
 144r 1.5669545e+02 1.61e+01 9.96e+02   1.5 1.39e+04    -  6.64e-03 2.20e-03f  1
 145  1.5669548e+02 1.61e+01 1.70e+19  -1.0 3.33e+11    -  1.56e-12 2.66e-13H  1
 146r 1.5669548e+02 1.61e+01 9.99e+02   1.2 0.00e+00  20.0 0.00e+00 4.77e-07R 22
 147r 1.5669529e+02 1.59e+01 2.11e+10   1.2 5.56e+03    -  1.44e-02 3.66e-03f  1
 148r 1.5669529e+02 1.59e+01 3.56e+18   1.2 1.95e+00   9.5 1.20e-01 8.04e-03H  1
 149r 1.5669529e+02 1.59e+01 2.97e+20   1.2 1.27e-06  17.8 9.90e-01 1.00e+00H  1
WARNING: Problem in step computation; switching to emergency mode.
iter    objective    inf_pr   inf_du lg(mu)  ||d||  lg(rg) alpha_du alpha_pr  ls
 150r 1.5669529e+02 1.59e+01 2.97e+20   1.2 1.27e-06  19.5 0.00e+00 0.00e+00R  1
 151r 1.5669529e+02 1.59e+01 3.67e+10   1.2 1.20e-17  20.0 9.90e-01 1.00e+00   0
 152r 1.5669529e+02 1.59e+01 2.84e+03   1.2 9.03e-17  19.5 1.00e+00 1.00e+00   0
 153r 1.5669529e+02 1.59e+01 4.90e+05   1.2 4.68e-14  19.0 1.00e+00 1.00e+00h  1
 154r 1.5669529e+02 1.59e+01 6.92e+04   1.2 1.98e-14  18.5 1.00e+00 1.00e+00h  1
 155r 1.5669529e+02 1.59e+01 2.92e+04   1.2 2.51e-14  18.1 1.00e+00 1.00e+00h  1
 156r 1.5669529e+02 1.59e+01 2.58e+04   1.2 6.65e-14  17.6 1.00e+00 1.00e+00h  1
 157r 1.5669529e+02 1.59e+01 3.81e+03   1.2 2.95e-14  17.1 1.00e+00 1.00e+00h  1
 158r 1.5669529e+02 1.59e+01 2.52e+03   1.2 5.85e-14  16.6 1.00e+00 1.00e+00h  1
 159r 1.5669529e+02 1.59e+01 1.19e+03   1.2 8.31e-14  16.2 1.00e+00 1.00e+00h  1
iter    objective    inf_pr   inf_du lg(mu)  ||d||  lg(rg) alpha_du alpha_pr  ls
 160r 1.5669529e+02 1.59e+01 1.13e+03   1.2 2.35e-13  15.7 1.00e+00 1.00e+00h  1
 161r 1.5669529e+02 1.59e+01 1.13e+03   1.2 7.06e-13  15.2 1.00e+00 1.00e+00h  1
 162r 1.5669529e+02 1.59e+01 1.13e+03   1.2 2.12e-12  14.7 1.00e+00 1.00e+00h  1
 163r 1.5669529e+02 1.59e+01 1.13e+03   1.2 6.35e-12  14.2 1.00e+00 1.00e+00h  1
 164r 1.5669529e+02 1.59e+01 1.13e+03   1.2 1.91e-11  13.8 1.00e+00 1.00e+00h  1
 165r 1.5669529e+02 1.59e+01 1.13e+03   1.2 5.72e-11  13.3 1.00e+00 1.00e+00h  1
 166r 1.5669529e+02 1.59e+01 9.39e+07   1.2 1.43e-05  12.8 1.00e+00 1.00e+00f  1
 167r 1.5669529e+02 1.59e+01 5.53e+21   1.2 1.14e+00  12.3 7.03e-03 1.31e-02f  2
 168r 1.5669529e+02 1.59e+01 5.53e+21   1.2 4.28e-08  20.0 0.00e+00 4.77e-07R 22
 169r 1.5669529e+02 1.59e+01 3.66e+11   1.2 3.38e-17  19.5 9.91e-01 1.00e+00   0
iter    objective    inf_pr   inf_du lg(mu)  ||d||  lg(rg) alpha_du alpha_pr  ls
 170r 1.5669529e+02 1.59e+01 6.91e+03   1.2 6.22e-16  19.0 1.00e+00 1.00e+00   0
 171r 1.5669529e+02 1.59e+01 6.02e+03   1.2 1.62e-15  18.6 1.00e+00 1.00e+00   0
 172r 1.5669529e+02 1.59e+01 1.16e+04   1.2 9.43e-15  18.1 1.00e+00 1.00e+00h  1
 173r 1.5669529e+02 1.59e+01 9.00e+03   1.2 1.12e-14  17.6 1.00e+00 2.50e-01h  3
 174r 1.5669529e+02 1.59e+01 8.76e+03   1.2 1.30e-14  17.1 1.00e+00 3.12e-02h  6
 175r 1.5669529e+02 1.59e+01 8.70e+03   1.2 2.76e-14  16.7 1.00e+00 7.81e-03h  8
 176r 1.5669529e+02 1.59e+01 8.69e+03   1.2 7.38e-14  16.2 1.00e+00 9.77e-04h 11
 177r 1.5669529e+02 1.59e+01 8.68e+03   1.2 2.22e-13  15.7 1.00e+00 4.88e-04h 12
 178r 1.5669529e+02 1.59e+01 1.13e+03   1.2 6.65e-13  15.2 1.00e+00 1.00e+00h  1
 179r 1.5669529e+02 1.59e+01 1.13e+03   1.2 2.00e-12  14.8 1.00e+00 1.00e+00h  1
iter    objective    inf_pr   inf_du lg(mu)  ||d||  lg(rg) alpha_du alpha_pr  ls
 180r 1.5669529e+02 1.59e+01 1.13e+03   1.2 5.99e-12  14.3 1.00e+00 1.00e+00h  1
 181r 1.5669529e+02 1.59e+01 1.13e+03   1.2 1.80e-11  13.8 1.00e+00 1.00e+00h  1
 182r 1.5669529e+02 1.59e+01 2.59e+13   1.2 1.44e-05  13.3 1.00e+00 1.00e+00H  1
 183r 1.5669529e+02 1.59e+01 2.46e+13   1.2 1.14e+00  12.8 7.00e-03 1.28e-02f  2
 184r 1.5669529e+02 1.59e+01 2.40e+13   1.2 1.14e+00  12.4 6.34e-02 6.70e-03h  2
 185r 1.5669529e+02 1.59e+01 2.40e+13   1.2 1.15e+00  11.9 2.12e-01 4.48e-04h  5
 186r 1.5669529e+02 1.59e+01 2.40e+13   1.2 1.19e+00  11.4 2.85e-02 2.38e-04h  6
 187r 1.5669529e+02 1.59e+01 2.40e+13   1.2 1.26e+00  10.9 1.00e+00 1.56e-04h  7
 188r 1.5669529e+02 1.59e+01 2.29e+13   1.2 1.35e+00  10.5 2.30e-02 4.42e-02h  1
 189r 1.5669529e+02 1.59e+01 5.93e+22   1.2 1.35e+00  10.0 7.57e-01 2.69e-01h  1
Scaling factors are invalid - setting them all to 1.
Scaling factors are invalid - setting them all to 1.
Scaling factors are invalid - setting them all to 1.
Scaling factors are invalid - setting them all to 1.
Scaling factors are invalid - setting them all to 1.
Scaling factors are invalid - setting them all to 1.
Scaling factors are invalid - setting them all to 1.
Scaling factors are invalid - setting them all to 1.
Scaling factors are invalid - setting them all to 1.
Scaling factors are invalid - setting them all to 1.
Scaling factors are invalid - setting them all to 1.
Scaling factors are invalid - setting them all to 1.
Scaling factors are invalid - setting them all to 1.
Scaling factors are invalid - setting them all to 1.
Scaling factors are invalid - setting them all to 1.
Scaling factors are invalid - setting them all to 1.
Scaling factors are invalid - setting them all to 1.
Scaling factors are invalid - setting them all to 1.
Scaling factors are invalid - setting them all to 1.
Scaling factors are invalid - setting them all to 1.
Scaling factors are invalid - setting them all to 1.
Scaling factors are invalid - setting them all to 1.
Scaling factors are invalid - setting them all to 1.
Scaling factors are invalid - setting them all to 1.
WARNING: Problem in step computation; switching to emergency mode.
iter    objective    inf_pr   inf_du lg(mu)  ||d||  lg(rg) alpha_du alpha_pr  ls
 190r 1.5669529e+02 1.59e+01 5.93e+22   1.2 1.35e+00  20.0 0.00e+00 0.00e+00R  1
Scaling factors are invalid - setting them all to 1.
Scaling factors are invalid - setting them all to 1.
Scaling factors are invalid - setting them all to 1.
Scaling factors are invalid - setting them all to 1.
Scaling factors are invalid - setting them all to 1.
Scaling factors are invalid - setting them all to 1.
Scaling factors are invalid - setting them all to 1.
Scaling factors are invalid - setting them all to 1.
Scaling factors are invalid - setting them all to 1.
Scaling factors are invalid - setting them all to 1.
Scaling factors are invalid - setting them all to 1.
Scaling factors are invalid - setting them all to 1.
Scaling factors are invalid - setting them all to 1.
Scaling factors are invalid - setting them all to 1.
WARNING: Problem in step computation; switching to emergency mode.
Restoration phase is called at point that is almost feasible,
  with constraint violation 0.000000e+00. Abort.
Restoration phase in the restoration phase failed.

Number of Iterations....: 190

                                   (scaled)                 (unscaled)
Objective...............:   1.5669528607936203e+02    1.5669528607936203e+02
Dual infeasibility......:   5.9302912738446973e+22    5.9302912738446973e+22
Constraint violation....:   1.5921225889809760e+01    1.5921225889809760e+01
Complementarity.........:   1.6140817205777427e+01    1.6140817205777427e+01
Overall NLP error.......:   5.5254817175140416e+16    5.9302912738446973e+22


Number of objective function evaluations             = 669
Number of objective gradient evaluations             = 135
Number of equality constraint evaluations            = 670
Number of inequality constraint evaluations          = 0
Number of equality constraint Jacobian evaluations   = 198
Number of inequality constraint Jacobian evaluations = 0
Number of Lagrangian Hessian evaluations             = 191
Total CPU secs in IPOPT (w/o function evaluations)   =      0.948
Total CPU secs in NLP function evaluations           =      6.497

EXIT: Restoration Failed!
